language ESSENCE' 1.0

letting fixed be 
[
    [8,2,1,0,0,0,7,4,6],
    [7,3,6,0,0,0,9,1,5],
    [5,4,9,0,0,0,3,8,2],
    [0,0,0,0,7,8,2,0,0],
    [0,0,0,5,2,0,0,0,0],
    [2,0,0,1,3,9,0,0,4],
    [3,9,2,0,0,0,5,6,8],
    [6,8,4,0,0,0,1,3,7],
    [1,5,7,0,0,0,4,2,9]
]